NAME: Route
NUMBER_OF_STORES: 2
NUMBER_OF_ORDERS: 1
NUMBER_OF_VEHICLES: 1
NUMBER_OF_DEPOT: 1
NODE_COORD_SECTION
57299215606db5a50e041ddf 21.015555 105.85152399999993 57299215606db5a50e041ddf
5737bf92b3e3691a33a8ad0b 21.016838 105.85584700000004 O-76WR5SD
DEMAND_SECTION
5737bf92b3e3691a33a8ad0b 5737bf92b3e3691a33a8ad0b -10 -10 26040 29640 300 0
DEPOT_SECTION
DEPORT_1 57299215606db5a50e041ddf 28800 79200
VEHICLES_SECTION
BIKE: 1
TRUCK: 0
57299233606db5a50e041de0 DEPORT_1 1000 100 35 25 200000 300 28800 79200 43200 46800
EOF